0 0 15 
1 0 33 
2 0 51 
3 0 60 
4 2 21 
5 2 28 
6 2 44 
7 5 13 
8 5 18 
9 5 33 
10 5 36 
11 5 40 
12 5 64 
13 5 8 
14 9 10 
15 10 10 
16 10 42 
17 11 10 
18 11 17 
19 11 31 
20 11 34 
21 11 42 
22 12 10 
23 12 5 
24 12 61 
25 15 13 
26 15 18 
27 15 64 
28 15 8 
29 17 21 
30 18 11 
31 18 13 
32 18 14 
33 18 15 
34 18 28 
35 25 10 
36 25 12 
37 25 14 
38 25 16 
39 25 18 
40 25 20 
41 25 23 
42 25 32 
43 25 34 
44 25 45 
45 25 61 
46 28 12 
47 28 15 
48 28 19 
49 28 23 
50 28 27 
51 28 37 
52 28 40 
53 28 42 
54 28 7 
55 32 10 
56 32 13 
57 33 10 
58 33 13 
59 34 10 
60 34 13 
61 34 28 
62 34 36 
63 34 39 
64 34 5 
65 34 51 
66 35 24 
67 38 27 
68 38 37 
69 38 40 
70 38 42 
71 40 45 
72 41 61 
73 48 10 
74 48 32 
75 48 34 
76 48 45 
77 48 61 
78 51 11 
79 51 14 
80 51 18 
81 51 22 
82 51 26 
83 51 37 
84 51 40 
85 51 42 
86 51 7 
87 54 0 
88 55 0 
89 55 19 
90 55 22 
91 55 26 
92 56 10 
93 56 20 
94 56 24 
95 57 10 
96 57 12 
97 57 28 
98 57 36 
99 57 39 
100 57 5 
101 57 51 
102 58 15 
103 61 11 
104 61 18 
105 61 21 
106 61 25 
107 61 37 
108 61 40 
109 61 42 
110 63 45 
111 64 61 
112 71 54 
113 71 56 
114 71 6 
115 72 0 
116 73 0 
117 74 13 
118 74 19 
119 74 25 
120 74 31 
121 74 37 
122 74 43 
123 74 49 
124 74 59 
125 74 62 
126 74 64 
127 78 10 
128 79 10 
129 80 10 
130 80 47 
131 80 50 
132 80 58 
133 80 61 
134 81 10 
135 84 13 
136 84 19 
137 84 25 
138 84 31 
139 84 37 
140 84 43 
141 84 59 
142 84 62 
143 84 64 
144 86 6 
145 87 11 
146 87 13 
147 87 15 
148 87 17 
149 87 19 
150 87 21 
151 87 23 
152 87 25 
153 87 27 
154 87 29 
155 87 31 
156 87 33 
157 87 35 
158 87 37 
159 87 39 
160 87 41 
161 87 42 
162 87 44 
163 87 45 
164 94 10 
165 94 20 
166 94 22 
167 94 34 
168 94 35 
169 94 36 
170 94 52 
171 94 6 
172 97 11 
173 97 15 
174 97 25 
175 97 28 
176 97 30 
177 97 57 
178 97 60 
179 97 64 
180 102 10 
181 103 10 
182 103 16 
183 103 24 
184 103 27 
185 103 42 
186 103 55 
187 103 58 
188 104 12 
189 107 11 
190 107 15 
191 107 25 
192 107 28 
193 107 30 
194 109 34 
195 109 35 
196 109 36 
197 109 6 
198 110 52 
199 117 50 
200 117 52 
201 117 63 
202 120 11 
203 120 15 
204 120 19 
205 120 25 
206 120 29 
207 120 34 
208 120 40 
209 120 44 
210 120 55 
211 120 58 
212 120 60 
213 120 7 
214 123 26 
215 124 37 
216 124 40 
217 124 44 
218 125 38 
219 125 42 
220 126 46 
221 126 5 
222 126 54 
223 126 57 
224 127 12 
225 127 16 
226 130 15 
227 130 19 
228 130 25 
229 130 29 
230 130 34 
231 130 39 
232 130 43 
233 130 55 
234 130 58 
235 130 60 
236 132 63 
